************************************************************************
file with basedata            : J1204_.BAS
initial value random generator: 1342598106
************************************************************************
projects                      :  1
jobs (incl. supersource/sink ):  122
horizon                       :  676
RESOURCES
  - renewable                 :  4   R
  - nonrenewable              :  0   N
  - doubly constrained        :  0   D
************************************************************************
PROJECT INFORMATION:
pronr.  #jobs rel.date duedate tardcost  MPM-Time
    1    120      0       74       55       74
************************************************************************
PRECEDENCE RELATIONS:
jobnr.    #modes  #successors   successors
   1        1          3           2   3   4
   2        1          3           8   9  16
   3        1          3          21  28  39
   4        1          3           5  12  64
   5        1          3           6   7  33
   6        1          3          20  29  32
   7        1          3          10  22  34
   8        1          3          11  13  91
   9        1          2          14  31
  10        1          3          15  18  23
  11        1          2          17 109
  12        1          2          69 105
  13        1          2          30 110
  14        1          1          60
  15        1          1          81
  16        1          3          24  55  71
  17        1          3          19  48  65
  18        1          2          58  84
  19        1          1          25
  20        1          3          38  41  45
  21        1          2          36 117
  22        1          2          27  44
  23        1          3          26  35  57
  24        1          1          53
  25        1          2          46  75
  26        1          2          47  81
  27        1          1          42
  28        1          1         108
  29        1          3          49  61 107
  30        1          1          99
  31        1          1          86
  32        1          2          37  67
  33        1          3          43  76  79
  34        1          2          77  92
  35        1          1          54
  36        1          2          93 100
  37        1          1          82
  38        1          3          40  53 108
  39        1          1          79
  40        1          2          59  68
  41        1          1          62
  42        1          1          58
  43        1          1          51
  44        1          1          52
  45        1          1          48
  46        1          2          50  94
  47        1          1          63
  48        1          3          74  78  83
  49        1          1         121
  50        1          1         104
  51        1          1          80
  52        1          3          56  87  90
  53        1          2          88 116
  54        1          3          66  96  97
  55        1          1         108
  56        1          1          92
  57        1          1         101
  58        1          1         112
  59        1          3          73  89 103
  60        1          1          70
  61        1          2          72 114
  62        1          1          68
  63        1          2         102 120
  64        1          1          91
  65        1          1          89
  66        1          1          78
  67        1          1          95
  68        1          1         118
  69        1          1          98
  70        1          1         118
  71        1          1          88
  72        1          1         113
  73        1          1          91
  74        1          1          95
  75        1          2          86 111
  76        1          1         116
  77        1          1          85
  78        1          1         106
  79        1          1          89
  80        1          1         109
  81        1          2          84  94
  82        1          2          85  98
  83        1          1         105
  84        1          1          88
  85        1          1         103
  86        1          1          99
  87        1          2          92 114
  88        1          1         107
  89        1          1          94
  90        1          1         110
  91        1          1          95
  92        1          1         100
  93        1          2         103 106
  94        1          1         110
  95        1          1         104
  96        1          1         114
  97        1          1         102
  98        1          1         106
  99        1          1         101
 100        1          1         116
 101        1          1         117
 102        1          1         115
 103        1          1         107
 104        1          1         113
 105        1          1         111
 106        1          1         119
 107        1          1         121
 108        1          1         112
 109        1          1         113
 110        1          1         112
 111        1          1         115
 112        1          1         117
 113        1          1         115
 114        1          1         118
 115        1          1         119
 116        1          1         120
 117        1          1         119
 118        1          1         121
 119        1          1         122
 120        1          1         122
 121        1          1         122
 122        1          0        
************************************************************************
REQUESTS/DURATIONS:
jobnr. mode duration  R 1  R 2  R 3  R 4
------------------------------------------------------------------------
  1      1     0       0    0    0    0
  2      1     1       0    4    0    0
  3      1     8       0    0    3    0
  4      1     4       0    4    0    0
  5      1     2       2    0    0    0
  6      1     4       4    0    0    0
  7      1     3       0    8    0    0
  8      1     5       0    6    0    0
  9      1     9       4    0    0    0
 10      1     6       0    0    0    9
 11      1     8       0    7    0    0
 12      1     3      10    0    0    0
 13      1     1       0    0    6    0
 14      1     5       8    0    0    0
 15      1     3       0    0    8    0
 16      1     4       0    9    0    0
 17      1     8       0    3    0    0
 18      1     4       0    0    5    0
 19      1     4       0    0    4    0
 20      1     2       0    0    7    0
 21      1     8       0    0    9    0
 22      1     2       0    0    2    0
 23      1     7       0    0    0    9
 24      1     9       3    0    0    0
 25      1     2       0    0    0    7
 26      1    10       0    0    9    0
 27      1     2       0    0    0    6
 28      1     5       0    0   10    0
 29      1    10       0    0    1    0
 30      1     6       0    0    0   10
 31      1     7       0    0    6    0
 32      1     9       0    0    4    0
 33      1     7       0    8    0    0
 34      1     4       1    0    0    0
 35      1     9       0    0    0    7
 36      1    10       0    0    0    7
 37      1     7       0    0    1    0
 38      1     8       0    2    0    0
 39      1     9       6    0    0    0
 40      1     5       0    0    0    4
 41      1     6       0    3    0    0
 42      1     2       0    0    4    0
 43      1     1       0    6    0    0
 44      1     3       0    0    2    0
 45      1     5       0    0    2    0
 46      1     4       0    3    0    0
 47      1     8       0    0    8    0
 48      1     2       0    0    9    0
 49      1     8       0    0    8    0
 50      1     6       0    0    6    0
 51      1     4       9    0    0    0
 52      1     1       0    6    0    0
 53      1     8       0    0    0   10
 54      1     9       0    0    3    0
 55      1     5       0    0    0    8
 56      1    10       0    2    0    0
 57      1     9       0    0    4    0
 58      1     8       0    0    0    4
 59      1     2       5    0    0    0
 60      1     7       0    0    9    0
 61      1    10       0    3    0    0
 62      1     2       5    0    0    0
 63      1     4       0    0    1    0
 64      1     8       0    0    9    0
 65      1     2       0    0    0   10
 66      1     3       0    0    0    5
 67      1     9       0    9    0    0
 68      1     9       0    0    5    0
 69      1     9       0    9    0    0
 70      1     8       3    0    0    0
 71      1     7       0    0    0    9
 72      1     8       0    6    0    0
 73      1     7      10    0    0    0
 74      1     7       0    0    0    8
 75      1     6       0    0    0    2
 76      1     6       0    6    0    0
 77      1    10       0    0    0    2
 78      1     3       0    5    0    0
 79      1     5      10    0    0    0
 80      1     5       0    0    0    5
 81      1    10       0    0    2    0
 82      1     8       0    0    0    9
 83      1     4      10    0    0    0
 84      1     7       0    0    6    0
 85      1     8       0    0    2    0
 86      1     2       3    0    0    0
 87      1    10       7    0    0    0
 88      1     4       0    0    8    0
 89      1     6       1    0    0    0
 90      1     3       0    0    0    3
 91      1     9       0    2    0    0
 92      1     7       0    6    0    0
 93      1     3       0    5    0    0
 94      1     8       0    2    0    0
 95      1     6       0    0    9    0
 96      1     8       0    0    2    0
 97      1     2       3    0    0    0
 98      1     7       0    0    7    0
 99      1     7       0    0    0    4
100      1     8       0    0    3    0
101      1     4       0    0    0    1
102      1     5       0    9    0    0
103      1     4       0    6    0    0
104      1     1       0    0    2    0
105      1     6      10    0    0    0
106      1     3       0    6    0    0
107      1     6       0    8    0    0
108      1     3       2    0    0    0
109      1     2       0    0    0    6
110      1     4       0    0    0    9
111      1     7       0    0    0    7
112      1     4       0    0    8    0
113      1     1       0    8    0    0
114      1     6       0    0   10    0
115      1    10       0    0    0    6
116      1     3       0    0    4    0
117      1    10       0    5    0    0
118      1     1       0    0    0    9
119      1     6       0   10    0    0
120      1     1       7    0    0    0
121      1     6       4    0    0    0
122      1     0       0    0    0    0
************************************************************************
RESOURCEAVAILABILITIES:
  R 1  R 2  R 3  R 4
   16   19   25   26
************************************************************************
